1570
63 77 94 78 75 46 27 43 38 71 17 37 48 62 57 20 84 41 1 98 3 10 95 53 52 35 14 49 51 28 76 74 34 19 2 67 36 99 16 9 70 80 7 73 79 47 81 96 72 86 87 44 69 89 60 61 90 4 30 8 29 33 21 58 93 25 40 83 22 66 97 42 64 15 39 45 13 65 23 24 82 5 55 50 92 26 32 54 91 11 85 18 56 59 88 6 31 12 68 
